NAME          COPTPROB
OBJSENSE
  MIN
ROWS
 N  __OBJ___
 L  C74     
 L  C83     
 L  C100    
 L  C113    
 L  C124    
 L  C198    
COLUMNS
    MARKER    'MARKER'                 'INTORG'
    x5        __OBJ___  -1
    x5        C113      1
    x5        C198      1
    x7        __OBJ___  -1
    x7        C74       1
    x7        C124      1
    x16       __OBJ___  -1
    x16       C100      1
    x16       C113      1
    x28       __OBJ___  -1
    x28       C74       1
    x28       C83       1
    x66       __OBJ___  -1
    x66       C100      1
    x66       C124      1
    x115      __OBJ___  -1
    x115      C83       1
    x115      C198      1
    MARKER    'MARKER'                 'INTEND'
RHS
    RHS       __OBJ___  85
    RHS       C74       1
    RHS       C83       1
    RHS       C100      1
    RHS       C113      1
    RHS       C124      1
    RHS       C198      1
BOUNDS
 UP BOUND     x5        1
 UP BOUND     x7        1
 UP BOUND     x16       1
 UP BOUND     x28       1
 UP BOUND     x66       1
 UP BOUND     x115      1
ENDATA
